SDVRP instances/custom_instances/p01_8_splitx10_0.vrp
NAME:p01_8_splitx10_
BEST_KNOWN: 0
COMMENT: 0
DIMENSION: 269
CAPACITY: 1600
EDGE_WEIGHT_FORMAT: FUNCTION
EDGE_WEIGHT_TYPE: EXACT_2D
NODE_COORD_SECTION
1 0.00000 0.00000
2 0 -9
3 0 -9
4 0 -9
5 0 -9
6 0 -9
7 0 -9
8 0 -9
9 -47 7
10 -47 7
11 -47 7
12 -47 7
13 -47 7
14 -47 7
15 -21 -12
16 -21 -12
17 -21 -12
18 -21 -12
19 -21 -12
20 5 14
21 5 14
22 5 14
23 5 14
24 5 14
25 5 14
26 5 14
27 27 42
28 27 42
29 27 42
30 27 42
31 19 -27
32 19 -27
33 19 -27
34 19 -27
35 19 -27
36 36 -26
37 36 -26
38 36 -26
39 36 -26
40 4 10
41 4 10
42 -48 -40
43 -48 -40
44 -48 -40
45 -48 -40
46 -48 -40
47 -48 -40
48 -40 39
49 -40 39
50 -40 39
51 -40 39
52 -40 39
53 42 -41
54 42 -41
55 42 -41
56 42 -41
57 42 -41
58 19 4
59 19 4
60 19 4
61 19 4
62 -43 1
63 -43 1
64 -43 1
65 -26 -6
66 -26 -6
67 1 27
68 1 27
69 1 27
70 1 27
71 20 6
72 20 6
73 20 6
74 20 6
75 20 6
76 0 42
77 0 42
78 0 42
79 0 42
80 0 42
81 0 42
82 -14 12
83 -14 12
84 -14 12
85 -14 12
86 -14 12
87 -14 12
88 33 36
89 33 36
90 33 36
91 33 36
92 33 36
93 33 36
94 33 36
95 -11 -28
96 -11 -28
97 -11 -28
98 -11 -28
99 -11 -28
100 -11 -28
101 -11 -28
102 -11 -28
103 -50 -43
104 -50 -43
105 -50 -43
106 -50 -43
107 -50 -43
108 -50 -43
109 -35 -17
110 -35 -17
111 -35 -17
112 -35 -17
113 -35 -17
114 19 -24
115 19 -24
116 19 -24
117 19 -24
118 19 -24
119 19 -24
120 19 -24
121 19 -24
122 -48 28
123 -48 28
124 -48 28
125 -48 28
126 14 -36
127 14 -36
128 14 -36
129 14 -36
130 14 -36
131 14 -36
132 14 -36
133 14 -36
134 -36 -32
135 -36 -32
136 -36 -32
137 -36 -32
138 -36 -32
139 7 36
140 7 36
141 7 36
142 7 36
143 7 36
144 7 36
145 7 36
146 7 36
147 -29 7
148 -29 7
149 -29 7
150 -29 7
151 -29 7
152 -29 7
153 22 31
154 22 31
155 22 31
156 22 31
157 22 31
158 47 -14
159 47 -14
160 47 -14
161 47 -14
162 47 -14
163 -20 24
164 -20 24
165 -20 24
166 3 -41
167 3 -41
168 3 -41
169 3 -41
170 3 -41
171 3 -41
172 2 -5
173 2 -5
174 2 -5
175 2 -5
176 -39 30
177 -39 30
178 -39 30
179 -39 30
180 -39 30
181 -39 30
182 -39 30
183 -39 30
184 10 -26
185 10 -26
186 10 -26
187 10 -26
188 -16 -33
189 -16 -33
190 -16 -33
191 -16 -33
192 -16 -33
193 -16 -33
194 -16 -33
195 -16 -33
196 33 33
197 33 33
198 33 33
199 33 33
200 33 33
201 33 33
202 33 33
203 21 41
204 21 41
205 21 41
206 21 41
207 -24 24
208 -24 24
209 -24 24
210 -24 24
211 -24 24
212 -24 24
213 -24 24
214 -47 -32
215 -47 -32
216 -47 -32
217 -47 -32
218 -47 -32
219 -47 -32
220 -12 12
221 -12 12
222 -12 12
223 43 -25
224 43 -25
225 43 -25
226 43 -25
227 43 -25
228 -39 -13
229 -39 -13
230 -39 -13
231 -39 -13
232 -39 -13
233 -39 -13
234 -14 -37
235 -14 -37
236 -14 -37
237 -14 -37
238 -14 -37
239 -14 -37
240 -45 29
241 -45 29
242 -45 29
243 -45 29
244 -45 29
245 -26 45
246 -26 45
247 -26 45
248 -26 45
249 -26 45
250 11 2
251 11 2
252 11 2
253 11 2
254 11 2
255 -47 4
256 -47 4
257 -47 4
258 -47 4
259 -15 -10
260 -15 -10
261 -15 -10
262 -15 -10
263 -15 -10
264 -15 -10
265 -15 -10
266 34 14
267 34 14
268 34 14
269 34 14
DEMAND_SECTION
1 0
2 320
3 160
4 80
5 16
6 16
7 16
8 12
9 320
10 160
11 80
12 16
13 16
14 8
15 160
16 80
17 16
18 16
19 8
20 320
21 160
22 80
23 16
24 16
25 16
26 12
27 320
28 160
29 16
30 14
31 320
32 160
33 80
34 16
35 14
36 320
37 160
38 16
39 14
40 160
41 80
42 320
43 320
44 80
45 16
46 16
47 8
48 320
49 16
50 16
51 16
52 2
53 160
54 80
55 16
56 16
57 8
58 160
59 80
60 16
61 4
62 320
63 320
64 160
65 320
66 160
67 160
68 16
69 16
70 8
71 320
72 320
73 16
74 16
75 8
76 320
77 320
78 80
79 16
80 16
81 8
82 320
83 160
84 16
85 16
86 16
87 12
88 320
89 160
90 80
91 16
92 16
93 16
94 2
95 320
96 320
97 80
98 16
99 16
100 16
101 16
102 6
103 320
104 160
105 16
106 16
107 16
108 2
109 320
110 160
111 16
112 16
113 8
114 320
115 160
116 80
117 16
118 16
119 16
120 16
121 6
122 320
123 80
124 16
125 4
126 320
127 320
128 80
129 16
130 16
131 16
132 16
133 6
134 320
135 320
136 80
137 16
138 14
139 320
140 320
141 80
142 16
143 16
144 16
145 16
146 6
147 160
148 80
149 16
150 16
151 16
152 2
153 160
154 16
155 16
156 16
157 12
158 320
159 160
160 80
161 16
162 4
163 320
164 320
165 80
166 320
167 320
168 80
169 16
170 16
171 8
172 320
173 160
174 80
175 10
176 320
177 160
178 80
179 16
180 16
181 16
182 16
183 6
184 320
185 16
186 16
187 8
188 320
189 160
190 80
191 16
192 16
193 16
194 16
195 6
196 320
197 320
198 16
199 16
200 16
201 16
202 6
203 320
204 320
205 16
206 4
207 320
208 160
209 80
210 16
211 16
212 16
213 12
214 320
215 160
216 16
217 16
218 16
219 12
220 320
221 16
222 4
223 160
224 80
225 16
226 16
227 8
228 320
229 320
230 80
231 16
232 16
233 8
234 320
235 80
236 16
237 16
238 16
239 2
240 320
241 160
242 80
243 16
244 14
245 320
246 160
247 80
248 16
249 4
250 160
251 16
252 16
253 16
254 2
255 160
256 80
257 16
258 4
259 320
260 320
261 80
262 16
263 16
264 16
265 12
266 320
267 16
268 16
269 8
DEPOT_SECTION
1
-1
EOF