SDVRP instances/custom_instances/p01_8_splitx10_0.sol
268 -7 3 2 4 1 5 6 172 174 171 173 -18 14 16 15 17 216 213 214 218 217 215 135 136 133 137 134 -24 25 21 19 23 20 22 40 39 -35 37 36 38 119 114 31 33 32 34 30 183 -43 46 42 44 45 41 105 106 103 107 102 104 192 193 191 189 188 -61 63 257 255 256 254 12 10 8 13 9 11 146 149 151 147 -62 230 232 231 227 228 229 108 112 110 109 111 -66 247 246 245 248 244 49 50 47 48 51 176 207 209 211 212 208 210 -68 69 67 77 78 76 79 75 80 138 139 141 143 145 144 142 140 -72 74 73 70 71 57 58 60 59 251 249 252 250 253 -84 86 85 81 83 82 206 162 164 163 -87 89 198 201 195 199 200 196 197 268 266 265 267 -99 97 98 101 94 95 96 100 235 236 237 234 233 238 190 194 187 -116 117 120 118 113 115 56 55 52 53 54 225 223 224 222 226 158 160 157 159 161 -150 148 124 123 122 121 243 240 242 241 239 181 177 178 180 179 175 182 -154 156 152 155 153 92 91 93 90 88 29 28 27 26 203 204 205 202 -170 166 169 168 165 167 126 128 131 130 127 129 125 132 184 185 186 -220 221 219 65 64 260 258 259 261 263 264 262 0 





OBJ=
1652.029
BEST_KNOWN=
0.000